128
BODIPY dimer, B3LYP-D3(BJ)/def2-SVP geometry from doi:10.5878/pyja-rd94 (CC BY 4.0)
C  1.30946200 -3.32763100  1.03742800
C  0.69760000 -2.34433300  0.22386200
C  1.65646500 -1.36825600 -0.04573600
C  2.84180500 -1.77939600  0.62599000
N  2.58130500 -2.98771300  1.26834900
C  4.09758500 -1.17724200  0.73295200
C  5.12828300 -1.77610800  1.45849500
C  6.46708600 -1.35735100  1.71790400
N  4.92756700 -3.00247800  2.08979400
C  7.03039400 -2.35349300  2.49873100
C  6.06041700 -3.35019800  2.71243900
H  8.04061900 -2.37334900  2.88643400
B  3.59589300 -3.80510800  2.11839900
F  3.14183000 -3.91240100  3.43076400
F  3.77787200 -5.06292100  1.55603400
C  4.32704200  0.13824300  0.07533200
C  4.89648600  0.18581700 -1.20484200
C  3.94732800  1.31314600  0.73981000
C  5.28287500 -1.00431500 -1.90168800
C  5.09406700  1.45452400 -1.84318200
C  4.13371500  2.58050200  0.09535800
C  3.36442500  1.28444500  2.04817100
C  5.84206300 -0.93871100 -3.14220900
H  5.12600900 -1.96581100 -1.42389300
C  5.68861400  1.47446600 -3.14670000
C  4.70533400  2.63576900 -1.18762100
C  3.71363500  3.76337500  0.78648700
H  3.22973700  0.32791700  2.54218900
C  2.98017000  2.43466200  2.66869100
C  6.05084100  0.32007700 -3.77289200
H  6.13068700 -1.85060200 -3.65577600
H  5.84776000  2.43195600 -3.63070300
C  3.15522700  3.69309400  2.02703300
H  3.84617200  4.72371300  0.30007200
H  2.53838400  2.39415900  3.65962900
H  6.50081700  0.35588700 -4.76033400
H  2.84119900  4.60071800  2.53348900
C  4.89242900  3.95474300 -1.86098600
C  6.03407600  4.72199300 -1.61696700
C  3.92546100  4.43920200 -2.74544600
C  6.20597400  5.95156100 -2.24597400
H  6.78747800  4.34797000 -0.92937800
C  4.09684600  5.66853200 -3.37463100
H  3.03701900  3.84404000 -2.93721400
C  5.23762400  6.42716500 -3.12606800
H  7.09818600  6.53832700 -2.04841200
H  3.33795900  6.03423700 -4.06000900
H  5.37175300  7.38638000 -3.61704900
C  1.43131700 -0.15798500 -0.89701200
H  1.41160300  0.75871400 -0.29706600
H  2.21722700 -0.03814400 -1.64758200
H  0.47090200 -0.24448600 -1.41261200
C  7.16677900 -0.11520200  1.26078900
H  7.29088300 -0.10096500  0.17291000
H  6.61277600  0.78807900  1.53422000
H  8.15923000 -0.06053000  1.71682300
C -0.69798200 -2.34425000 -0.22406200
C -1.30998300 -3.32748800 -1.03760300
C -1.65673800 -1.36809400  0.04560500
N -2.58180400 -2.98745000 -1.26845500
C -2.84217600 -1.77913200 -0.62603000
C -1.43142300 -0.15785400  0.89688500
B -3.59662100 -3.80491600 -2.11816700
C -4.09786700 -1.17680200 -0.73301500
H -1.41138200  0.75882000  0.29690700
H -2.21740300 -0.03778500  1.64733800
H -0.47109200 -0.24457600  1.41260800
N -4.92813300 -3.00204000 -2.08966100
F -3.14268200 -3.91266300 -3.43055000
F -3.77880100 -5.06253300 -1.55545200
C -5.12866200 -1.77556800 -1.45850500
C -4.32712700  0.13874400 -0.07544200
C -6.06109800 -3.34976600 -2.71209800
C -6.46744800 -1.35671500 -1.71783700
C -4.89666900  0.18646200  1.20468400
C -3.94708400  1.31355500 -0.73989700
C -7.03095800 -2.35294200 -2.49841100
C -7.16693700 -0.11440700 -1.26083900
C -5.28342000 -1.00356700  1.90150600
C -5.09395500  1.45521800  1.84301700
C -4.13317800  2.58095500 -0.09544800
C -3.36411000  1.28471700 -2.04822300
H -8.04122200 -2.37274200 -2.88601300
H -7.29115700 -0.10012600 -0.17297100
H -6.61273100  0.78875700 -1.53423300
H -8.15933100 -0.05954900 -1.71697500
C -5.84267900 -0.93781400  3.14198700
H -5.12677300 -1.96510400  1.42372200
C -5.68857700  1.47532100  3.14649800
C -4.70484500  2.63636000  1.18750100
C -3.71276200  3.76372700 -0.78654100
H -3.22964800  0.32815900 -2.54224500
C -2.97952000  2.43484000 -2.66870900
C -6.05116000  0.32102900  3.77266200
H -6.13158500 -1.84962800  3.65553100
H -5.84748500  2.43285700  3.63048900
C -4.89156600  3.95537400  1.86089400
C -3.15429500  3.69331300 -2.02705400
H -3.84509800  4.72409400 -0.30012800
H -2.53768500  2.39423200 -3.65962100
H -6.50119100  0.35695700  4.76007400
C -6.03303900  4.72291700  1.61698300
C -3.92440200  4.43956500  2.74528500
H -2.84001300  4.60086200 -2.53348700
C -6.20457200  5.95251400  2.24603200
H -6.78659100  4.34910100  0.92944600
C -4.09542300  5.66892600  3.37451200
H -3.03609800  3.84417100  2.93696900
C -5.23602900  6.42785300  3.12605900
H -7.09664900  6.53951500  2.04855500
H -3.33638700  6.03442000  4.05983900
H -5.36987700  7.38709200  3.61707100
C  6.18769300 -4.61219600  3.49651500
H  5.46355800 -4.62292400  4.31652300
H  5.96619600 -5.47679100  2.86425500
H  7.19650500 -4.70908700  3.90346700
C  0.69612400 -4.56945700  1.58850000
H -0.38833000 -4.54399900  1.46033500
H  1.09470300 -5.45180600  1.07707600
H  0.93854100 -4.67349200  2.64876100
C -0.69679300 -4.56939300 -1.58866200
H -1.09533700 -5.45166800 -1.07707400
H -0.93939500 -4.67353100 -2.64886700
H  0.38768000 -4.54398200 -1.46064900
C -6.18858500 -4.61197100 -3.49580300
H -5.46394100 -4.62339900 -4.31534500
H -5.96791200 -5.47643500 -2.86305800
H -7.19720600 -4.70849200 -3.90330900
