65
Monomer 2 in oligomer
C  11.034158 -2.183042  1.258843
C  12.163368 -2.910021  1.677936
C  13.297724 -2.220356  1.281334
C  12.828550 -1.053109  0.608887
N  11.434992 -1.076073  0.621574
H  12.136240 -3.847679  2.217702
C  13.513579  0.000551  0.000981
C  12.828538  1.053855 -0.607528
C  13.297711  2.219834 -1.282174
N  11.434977  1.076255 -0.621187
C  12.163358  2.908085 -1.681220
C  11.034145  2.181611 -1.261268
H  12.136237  3.844346 -2.223408
B  10.500200  0.001732  0.003054
F  9.704408 -0.569246 -0.985784
F  9.712366  0.575367  0.996574
C  15.002646  0.000498  0.000893
C  15.693905  0.610193  1.057298
C  15.693618 -0.609275 -1.055671
C  15.005066  1.237953  2.145032
C  17.127992  0.609805  1.056751
C  17.127696 -0.609046 -1.055430
C  15.004499 -1.236955 -2.143276
C  15.693337  1.825433  3.163358
H  13.920035  1.239612  2.147635
C  17.808712  1.239745  2.148926
C  17.827142  0.000342  0.000586
C  17.808126 -1.239054 -2.147751
H  13.919471 -1.238501 -2.145667
C  15.692492 -1.824496 -3.161756
C  17.116699  1.826257  3.165297
H  15.155356  2.296796  3.980116
H  18.893325  1.241963  2.153280
C  17.115850 -1.825479 -3.163991
H  18.892738 -1.241391 -2.152324
H  15.154288 -2.295787 -3.978408
H  17.650607  2.298589  3.984273
H  17.649541 -2.297858 -3.983083
C  19.320003  0.000245  0.000391
C  20.028315  1.044852 -0.598589
C  20.028333 -1.044495  0.599119
C  21.420036  1.044978 -0.598998
H  19.479840  1.858501 -1.064881
C  21.420054 -1.044893  0.599009
H  19.479873 -1.858051  1.065592
C  22.118544 -0.000028 -0.000128
H  21.959272  1.862719 -1.067925
H  21.959305 -1.862746  1.067726
H  23.204424 -0.000140 -0.000340
C  14.708075 -2.655643  1.532471
H  15.259942 -2.798306  0.597897
H  15.259939 -1.918006  2.123793
H  14.711087 -3.602899  2.078930
C  14.708067  2.654988 -1.533517
H  15.260024  2.797840 -0.599033
H  15.259841  1.917153 -2.124688
H  14.711096  3.602084 -2.080247
C  9.593953  2.516194 -1.455628
H  9.089555  1.716223 -2.005332
H  9.091023  2.604887 -0.488222
H  9.490585  3.454529 -2.004788
C  9.593954 -2.518546  1.451515
H  9.090939 -1.724587  2.011231
H  9.089693 -2.595476  0.483858
H  9.490534 -3.462824  1.990382
