65
Monomer 1 in oligomer
C -3.965842 -0.001331  2.519991
C -2.836632 -0.001875  3.359120
C -1.702276 -0.000511  2.563552
C -2.171450  0.000757  1.216463
N -3.565008  0.000262  1.242693
H -2.863760 -0.003253  4.441039
C -1.486421  0.001125  0.000014
C -2.171462  0.000793 -1.216429
C -1.702289 -0.000479 -2.563519
N -3.565023  0.000164 -1.242658
C -2.836642 -0.001937 -3.359085
C -3.965855 -0.001485 -2.519965
H -2.863763 -0.003355 -4.441005
B -4.499800  0.003511  0.000027
F -5.295592 -1.138337  0.000090
F -5.287634  1.150742  0.000005
C  0.002646  0.001022  0.000015
C  0.693905  1.220743  0.000206
C  0.693618 -1.218876 -0.000188
C  0.005066  2.476629  0.000417
C  2.127992  1.220076  0.000269
C  2.127696 -1.218552 -0.000266
C  0.004499 -2.474609 -0.000403
C  0.693337  3.652264  0.000808
H -1.079965  2.479712  0.000282
C  2.808712  2.480897  0.000813
C  2.827142  0.000678 -0.000003
C  2.808126 -2.479534 -0.000824
H -1.080529 -2.477453 -0.000260
C  0.692492 -3.650409 -0.000818
C  2.116699  3.654356  0.001064
H  0.155356  4.595279  0.000974
H  3.893325  2.485776  0.001068
C  2.115850 -3.652836 -0.001084
H  3.892738 -2.484663 -0.001086
H  0.154288 -4.593296 -0.000994
H  2.650607  4.599776  0.001500
H  2.649541 -4.598380 -0.001538
C  4.320003  0.000461 -0.000016
C  5.028315  0.004033 -1.204163
C  5.028333 -0.003395  1.204118
C  6.420036  0.003742 -1.204476
H  4.479840  0.007036 -2.141950
C  6.420054 -0.003690  1.204409
H  4.479873 -0.006196  2.141915
C  7.118544 -0.000125 -0.000040
H  6.959272  0.006509 -2.147124
H  6.959305 -0.006695  2.147048
H  8.204424 -0.000364 -0.000049
C -0.291925 -0.000663  3.066090
H  0.259942 -0.881359  2.722353
H  0.259939  0.880255  2.722938
H -0.288913 -0.001043  4.159667
C -0.291933 -0.000571 -3.066045
H  0.260024  0.880142 -2.722517
H  0.259841 -0.881457 -2.722647
H -0.288904 -0.000505 -4.159620
C -5.406047 -0.002514 -2.906902
H -5.910445 -0.878557 -2.488958
H -5.908977  0.879631 -2.500009
H -5.509415 -0.008933 -3.994104
C -5.406046 -0.002225  2.906882
H -5.909061  0.879483  2.499152
H -5.910307 -0.878705  2.489678
H -5.509466 -0.007691  3.994085
