130
Full oligomer structure
C -3.965842 -0.001331  2.519991
C -2.836632 -0.001875  3.359120
C -1.702276 -0.000511  2.563552
C -2.171450  0.000757  1.216463
N -3.565008  0.000262  1.242693
H -2.863760 -0.003253  4.441039
C -1.486421  0.001125  0.000014
C -2.171462  0.000793 -1.216429
C -1.702289 -0.000479 -2.563519
N -3.565023  0.000164 -1.242658
C -2.836642 -0.001937 -3.359085
C -3.965855 -0.001485 -2.519965
H -2.863763 -0.003355 -4.441005
B -4.499800  0.003511  0.000027
F -5.295592 -1.138337  0.000090
F -5.287634  1.150742  0.000005
C  0.002646  0.001022  0.000015
C  0.693905  1.220743  0.000206
C  0.693618 -1.218876 -0.000188
C  0.005066  2.476629  0.000417
C  2.127992  1.220076  0.000269
C  2.127696 -1.218552 -0.000266
C  0.004499 -2.474609 -0.000403
C  0.693337  3.652264  0.000808
H -1.079965  2.479712  0.000282
C  2.808712  2.480897  0.000813
C  2.827142  0.000678 -0.000003
C  2.808126 -2.479534 -0.000824
H -1.080529 -2.477453 -0.000260
C  0.692492 -3.650409 -0.000818
C  2.116699  3.654356  0.001064
H  0.155356  4.595279  0.000974
H  3.893325  2.485776  0.001068
C  2.115850 -3.652836 -0.001084
H  3.892738 -2.484663 -0.001086
H  0.154288 -4.593296 -0.000994
H  2.650607  4.599776  0.001500
H  2.649541 -4.598380 -0.001538
C  4.320003  0.000461 -0.000016
C  5.028315  0.004033 -1.204163
C  5.028333 -0.003395  1.204118
C  6.420036  0.003742 -1.204476
H  4.479840  0.007036 -2.141950
C  6.420054 -0.003690  1.204409
H  4.479873 -0.006196  2.141915
C  7.118544 -0.000125 -0.000040
H  6.959272  0.006509 -2.147124
H  6.959305 -0.006695  2.147048
H  8.204424 -0.000364 -0.000049
C -0.291925 -0.000663  3.066090
H  0.259942 -0.881359  2.722353
H  0.259939  0.880255  2.722938
H -0.288913 -0.001043  4.159667
C -0.291933 -0.000571 -3.066045
H  0.260024  0.880142 -2.722517
H  0.259841 -0.881457 -2.722647
H -0.288904 -0.000505 -4.159620
C -5.406047 -0.002514 -2.906902
H -5.910445 -0.878557 -2.488958
H -5.908977  0.879631 -2.500009
H -5.509415 -0.008933 -3.994104
C -5.406046 -0.002225  2.906882
H -5.909061  0.879483  2.499152
H -5.910307 -0.878705  2.489678
H -5.509466 -0.007691  3.994085
C  11.034158 -2.183042  1.258843
C  12.163368 -2.910021  1.677936
C  13.297724 -2.220356  1.281334
C  12.828550 -1.053109  0.608887
N  11.434992 -1.076073  0.621574
H  12.136240 -3.847679  2.217702
C  13.513579  0.000551  0.000981
C  12.828538  1.053855 -0.607528
C  13.297711  2.219834 -1.282174
N  11.434977  1.076255 -0.621187
C  12.163358  2.908085 -1.681220
C  11.034145  2.181611 -1.261268
H  12.136237  3.844346 -2.223408
B  10.500200  0.001732  0.003054
F  9.704408 -0.569246 -0.985784
F  9.712366  0.575367  0.996574
C  15.002646  0.000498  0.000893
C  15.693905  0.610193  1.057298
C  15.693618 -0.609275 -1.055671
C  15.005066  1.237953  2.145032
C  17.127992  0.609805  1.056751
C  17.127696 -0.609046 -1.055430
C  15.004499 -1.236955 -2.143276
C  15.693337  1.825433  3.163358
H  13.920035  1.239612  2.147635
C  17.808712  1.239745  2.148926
C  17.827142  0.000342  0.000586
C  17.808126 -1.239054 -2.147751
H  13.919471 -1.238501 -2.145667
C  15.692492 -1.824496 -3.161756
C  17.116699  1.826257  3.165297
H  15.155356  2.296796  3.980116
H  18.893325  1.241963  2.153280
C  17.115850 -1.825479 -3.163991
H  18.892738 -1.241391 -2.152324
H  15.154288 -2.295787 -3.978408
H  17.650607  2.298589  3.984273
H  17.649541 -2.297858 -3.983083
C  19.320003  0.000245  0.000391
C  20.028315  1.044852 -0.598589
C  20.028333 -1.044495  0.599119
C  21.420036  1.044978 -0.598998
H  19.479840  1.858501 -1.064881
C  21.420054 -1.044893  0.599009
H  19.479873 -1.858051  1.065592
C  22.118544 -0.000028 -0.000128
H  21.959272  1.862719 -1.067925
H  21.959305 -1.862746  1.067726
H  23.204424 -0.000140 -0.000340
C  14.708075 -2.655643  1.532471
H  15.259942 -2.798306  0.597897
H  15.259939 -1.918006  2.123793
H  14.711087 -3.602899  2.078930
C  14.708067  2.654988 -1.533517
H  15.260024  2.797840 -0.599033
H  15.259841  1.917153 -2.124688
H  14.711096  3.602084 -2.080247
C  9.593953  2.516194 -1.455628
H  9.089555  1.716223 -2.005332
H  9.091023  2.604887 -0.488222
H  9.490585  3.454529 -2.004788
C  9.593954 -2.518546  1.451515
H  9.090939 -1.724587  2.011231
H  9.089693 -2.595476  0.483858
H  9.490534 -3.462824  1.990382
